n = 35;
m = 56;
w = [8,4,5,5,7,4,9,7,4,7,7,10,1,4,7,8,9,9,8,4,4,9,1,5,7,9,3,5,8,1,5,6,3,4,8,2,4,4,2,7,10,4,3,2,5,4,6,4,4,7,6,6,10,2,2,4];
edges = array2d(1..m, 1..2, [1,19,1,28,2,3,2,10,3,34,4,8,4,10,4,14,4,34,5,7,5,14,5,20,5,28,6,18,6,23,6,30,6,35,7,21,7,26,7,30,8,21,8,27,8,32,9,28,9,31,10,12,10,17,10,22,10,24,11,26,12,16,12,25,13,26,14,32,15,17,15,25,15,26,16,29,17,18,19,25,20,23,21,26,22,24,22,35,23,24,23,26,23,33,24,29,25,32,25,35,26,33,26,35,27,34,30,35,32,34,33,34]);
